NAME: R10-280319-182306.tsp
TYPE: TSP
COMMENT: Random data
DIMENSION: 10
EDGE_WEIGHT_TYPE: EXPLICIT
EDGE_WEIGHT_FORMAT: FULL_MATRIX
DISPLAY_DATA_TYPE: NO_DISPLAY
EDGE_WEIGHT_SECTION
 0 81 72 69 22  2 98  8 59 16 
 4  0 75 21 62 10 43 16 69 93 
39 62  0 18 22 67 90 97 94 22 
85 54 28  0  5 59 93  1 47 89 
35 84 62 67  0 98 62 59 95  4 
75 45 70 31 72  0 62 14 64 10 
70 59  5 79 25  7  0 75 22  5 
88 99 16 27 60 62 53  0 81 84 
30 71 63 55 62 71 85 22  0 49 
52 54 81 66 90 94 83 31 88  0 
EOF